
Gurobi 10.0.1 (win64) logging started Mon Aug 28 19:51:28 2023

Set parameter LogFile to value "results//log/BA_13_deadline.log"
Gurobi Optimizer version 10.0.1 build v10.0.1rc0 (win64)

CPU model: AMD Ryzen 7 3700X 8-Core Processor, instruction set [SSE2|AVX|AVX2]
Thread count: 8 physical cores, 16 logical processors, using up to 16 threads

Optimize a model with 656 rows, 451 columns and 2653 nonzeros
Model fingerprint: 0xd1dea0aa
Model has 1 quadratic constraint
Variable types: 54 continuous, 397 integer (396 binary)
Coefficient statistics:
  Matrix range     [1e+00, 1e+06]
  QMatrix range    [1e+00, 1e+00]
  QLMatrix range   [1e+00, 1e+01]
  Objective range  [1e+00, 1e+00]
  Bounds range     [1e+00, 1e+00]
  RHS range        [1e+00, 3e+06]
Presolve removed 81 rows and 168 columns
Presolve time: 0.00s
Presolved: 594 rows, 301 columns, 2647 nonzeros
Variable types: 72 continuous, 229 integer (228 binary)

Root relaxation: objective 0.000000e+00, 67 iterations, 0.00 seconds (0.00 work units)

    Nodes    |    Current Node    |     Objective Bounds      |     Work
 Expl Unexpl |  Obj  Depth IntInf | Incumbent    BestBd   Gap | It/Node Time

     0     0    0.00000    0    4          -    0.00000      -     -    0s
H    0     0                      78.0000000    0.00000   100%     -    0s
H    0     0                      63.0000000    0.00000   100%     -    0s
H    0     0                      55.0000000    0.00000   100%     -    0s
     0     0    0.00000    0    7   55.00000    0.00000   100%     -    0s
     0     0    0.00000    0   11   55.00000    0.00000   100%     -    0s
     0     0    0.00000    0    9   55.00000    0.00000   100%     -    0s
H    0     0                      51.0000000    0.00000   100%     -    0s
     0     0    0.00000    0   12   51.00000    0.00000   100%     -    0s
H    0     0                      50.0000000    0.00000   100%     -    0s
     0     0    0.00000    0    2   50.00000    0.00000   100%     -    0s
     0     0    0.00000    0    5   50.00000    0.00000   100%     -    0s
     0     0    0.00000    0    9   50.00000    0.00000   100%     -    0s
     0     0    0.00000    0    7   50.00000    0.00000   100%     -    0s
     0     0    0.00000    0    3   50.00000    0.00000   100%     -    0s
     0     0    0.00000    0    3   50.00000    0.00000   100%     -    0s
     0     2    0.00000    0    3   50.00000    0.00000   100%     -    0s
H   38    40                      47.0000000    0.00000   100%  27.1    0s
H  477   419                      45.0000000    0.00000   100%   6.9    0s
H  828   423                      44.0000000    0.00000   100%   6.2    0s
H  829   423                      30.0000000    0.00000   100%   6.2    0s
H 1582   654                      29.0000000    0.00000   100%   6.7    0s
H 3079  1007                      28.0000000    0.00000   100%   6.4    0s
H 5291   997                      24.0000000    0.00000   100%   4.4    0s
H 7973  1204                      23.0000000    0.00000   100%   1.9    1s
H 8023  1177                      22.0000000    0.00000   100%   2.0    2s
H 8029  1122                      19.0000000    0.00000   100%   2.0    2s
 41990 12310 infeasible   34        19.00000    0.41026  97.8%  10.1    5s
 149602 31387   17.36829   48   14   19.00000    2.00000  89.5%  12.3   10s
 280187 42959 infeasible   46        19.00000    4.00000  78.9%  12.6   15s
 412513 45396    7.00000   45    9   19.00000    7.00000  63.2%  12.6   20s
 546793 42781   18.00000   50   10   19.00000    9.00000  52.6%  12.3   25s
 664727 36905   15.00000   44    8   19.00000   11.00000  42.1%  12.1   30s
 785488 24501 infeasible   50        19.00000   13.00000  31.6%  11.8   35s
 904758  6025 infeasible   52        19.00000   17.00000  10.5%  11.4   40s

Cutting planes:
  Gomory: 1
  Cover: 1
  Implied bound: 13
  MIR: 3
  Flow cover: 7

Explored 933410 nodes (10603770 simplex iterations) in 41.02 seconds (29.49 work units)
Thread count was 16 (of 16 available processors)

Solution count 10: 19 19 22 ... 45

Optimal solution found (tolerance 1.00e-04)
Best objective 1.900000000000e+01, best bound 1.900000000000e+01, gap 0.0000%
Warning: constraint name "precedence between 0,2 to 0,0 if x_[j,l,h,z,i]=1" has a space
Warning: constraint name "precedence between 0,2 to 0,0 if x_[j,l,h,z,i]=1" has a space
Warning: default constraint names used to write mps file
